(set-option :produce-models true)
(set-logic QF_LRA)
(set-info :notes | Strip-packing problem.|)
(declare-fun x0 () Real)
(declare-fun y0 () Real)
(declare-fun x1 () Real)
(declare-fun y1 () Real)
(declare-fun x2 () Real)
(declare-fun y2 () Real)
(declare-fun x3 () Real)
(declare-fun y3 () Real)
(declare-fun x4 () Real)
(declare-fun y4 () Real)
(declare-fun x5 () Real)
(declare-fun y5 () Real)
(declare-fun x6 () Real)
(declare-fun y6 () Real)
(declare-fun x7 () Real)
(declare-fun y7 () Real)
(declare-fun x8 () Real)
(declare-fun y8 () Real)
(declare-fun x9 () Real)
(declare-fun y9 () Real)
(declare-fun x10 () Real)
(declare-fun y10 () Real)
(declare-fun x11 () Real)
(declare-fun y11 () Real)
(declare-fun z () Real)
(declare-fun c () Real)
(assert (and (= c z) (and (>= x0 0) 
(and (>= y0 0) 
(and (>= x1 0) 
(and (>= y1 0) 
(and (>= x2 0) 
(and (>= y2 0) 
(and (>= x3 0) 
(and (>= y3 0) 
(and (>= x4 0) 
(and (>= y4 0) 
(and (>= x5 0) 
(and (>= y5 0) 
(and (>= x6 0) 
(and (>= y6 0) 
(and (>= x7 0) 
(and (>= y7 0) 
(and (>= x8 0) 
(and (>= y8 0) 
(and (>= x9 0) 
(and (>= y9 0) 
(and (>= x10 0) 
(and (>= y10 0) 
(and (>= x11 0) 
(and (>= y11 0) 
(and (>= z 0) 
(and (>= c 0) 
(and (<= (+ x0 0.3674813564) z) 
(and (<= 0.9589741829 y0) 
(and (<= y0 1.0) 
(and (<= x0 (- 4.8249964208 0.3674813564)) 
(and (>= x0 0) 
(and (<= (+ x1 0.6980624043) z) 
(and (<= 0.6483760631 y1) 
(and (<= y1 1.0) 
(and (<= x1 (- 4.8249964208 0.6980624043)) 
(and (>= x1 0) 
(and (<= (+ x2 0.6120988242) z) 
(and (<= 0.5942602506 y2) 
(and (<= y2 1.0) 
(and (<= x2 (- 4.8249964208 0.6120988242)) 
(and (>= x2 0) 
(and (<= (+ x3 0.2809041146) z) 
(and (<= 0.5711087883 y3) 
(and (<= y3 1.0) 
(and (<= x3 (- 4.8249964208 0.2809041146)) 
(and (>= x3 0) 
(and (<= (+ x4 0.3373722324) z) 
(and (<= 0.4594187931 y4) 
(and (<= y4 1.0) 
(and (<= x4 (- 4.8249964208 0.3373722324)) 
(and (>= x4 0) 
(and (<= (+ x5 0.4658033045) z) 
(and (<= 0.3690513667 y5) 
(and (<= y5 1.0) 
(and (<= x5 (- 4.8249964208 0.4658033045)) 
(and (>= x5 0) 
(and (<= (+ x6 0.7693883962) z) 
(and (<= 0.2942406758 y6) 
(and (<= y6 1.0) 
(and (<= x6 (- 4.8249964208 0.7693883962)) 
(and (>= x6 0) 
(and (<= (+ x7 0.850028947) z) 
(and (<= 0.2606296293 y7) 
(and (<= y7 1.0) 
(and (<= x7 (- 4.8249964208 0.850028947)) 
(and (>= x7 0) 
(and (<= (+ x8 0.1587576041) z) 
(and (<= 0.2528630481 y8) 
(and (<= y8 1.0) 
(and (<= x8 (- 4.8249964208 0.1587576041)) 
(and (>= x8 0) 
(and (<= (+ x9 0.4296516965) z) 
(and (<= 0.1620934291 y9) 
(and (<= y9 1.0) 
(and (<= x9 (- 4.8249964208 0.4296516965)) 
(and (>= x9 0) 
(and (<= (+ x10 0.9096601457) z) 
(and (<= 0.0493664354 y10) 
(and (<= y10 1.0) 
(and (<= x10 (- 4.8249964208 0.9096601457)) 
(and (>= x10 0) 
(and (<= (+ x11 0.2781373864) z) 
(and (<= 0.0343535925 y11) 
(and (<= y11 1.0) 
(and (<= x11 (- 4.8249964208 0.2781373864)) 
(and (>= x11 0) 
(and (<= c 4.8249964208) 
(and (or (<= (+ x0 0.3674813564) x1) (or (<= (+ x1 0.6980624043) x0) (or (>= (- y0 0.9589741829) y1) (or (>= (- y1 0.6483760631) y0))))) 
(and (or (<= (+ x0 0.3674813564) x2) (or (<= (+ x2 0.6120988242) x0) (or (>= (- y0 0.9589741829) y2) (or (>= (- y2 0.5942602506) y0))))) 
(and (or (<= (+ x0 0.3674813564) x3) (or (<= (+ x3 0.2809041146) x0) (or (>= (- y0 0.9589741829) y3) (or (>= (- y3 0.5711087883) y0))))) 
(and (or (<= (+ x0 0.3674813564) x4) (or (<= (+ x4 0.3373722324) x0) (or (>= (- y0 0.9589741829) y4) (or (>= (- y4 0.4594187931) y0))))) 
(and (or (<= (+ x0 0.3674813564) x5) (or (<= (+ x5 0.4658033045) x0) (or (>= (- y0 0.9589741829) y5) (or (>= (- y5 0.3690513667) y0))))) 
(and (or (<= (+ x0 0.3674813564) x6) (or (<= (+ x6 0.7693883962) x0) (or (>= (- y0 0.9589741829) y6) (or (>= (- y6 0.2942406758) y0))))) 
(and (or (<= (+ x0 0.3674813564) x7) (or (<= (+ x7 0.850028947) x0) (or (>= (- y0 0.9589741829) y7) (or (>= (- y7 0.2606296293) y0))))) 
(and (or (<= (+ x0 0.3674813564) x8) (or (<= (+ x8 0.1587576041) x0) (or (>= (- y0 0.9589741829) y8) (or (>= (- y8 0.2528630481) y0))))) 
(and (or (<= (+ x0 0.3674813564) x9) (or (<= (+ x9 0.4296516965) x0) (or (>= (- y0 0.9589741829) y9) (or (>= (- y9 0.1620934291) y0))))) 
(and (or (<= (+ x0 0.3674813564) x10) (or (<= (+ x10 0.9096601457) x0) (or (>= (- y0 0.9589741829) y10) (or (>= (- y10 0.0493664354) y0))))) 
(and (or (<= (+ x0 0.3674813564) x11) (or (<= (+ x11 0.2781373864) x0) (or (>= (- y0 0.9589741829) y11) (or (>= (- y11 0.0343535925) y0))))) 
(and (or (<= (+ x1 0.6980624043) x2) (or (<= (+ x2 0.6120988242) x1) (or (>= (- y1 0.6483760631) y2) (or (>= (- y2 0.5942602506) y1))))) 
(and (or (<= (+ x1 0.6980624043) x3) (or (<= (+ x3 0.2809041146) x1) (or (>= (- y1 0.6483760631) y3) (or (>= (- y3 0.5711087883) y1))))) 
(and (or (<= (+ x1 0.6980624043) x4) (or (<= (+ x4 0.3373722324) x1) (or (>= (- y1 0.6483760631) y4) (or (>= (- y4 0.4594187931) y1))))) 
(and (or (<= (+ x1 0.6980624043) x5) (or (<= (+ x5 0.4658033045) x1) (or (>= (- y1 0.6483760631) y5) (or (>= (- y5 0.3690513667) y1))))) 
(and (or (<= (+ x1 0.6980624043) x6) (or (<= (+ x6 0.7693883962) x1) (or (>= (- y1 0.6483760631) y6) (or (>= (- y6 0.2942406758) y1))))) 
(and (or (<= (+ x1 0.6980624043) x7) (or (<= (+ x7 0.850028947) x1) (or (>= (- y1 0.6483760631) y7) (or (>= (- y7 0.2606296293) y1))))) 
(and (or (<= (+ x1 0.6980624043) x8) (or (<= (+ x8 0.1587576041) x1) (or (>= (- y1 0.6483760631) y8) (or (>= (- y8 0.2528630481) y1))))) 
(and (or (<= (+ x1 0.6980624043) x9) (or (<= (+ x9 0.4296516965) x1) (or (>= (- y1 0.6483760631) y9) (or (>= (- y9 0.1620934291) y1))))) 
(and (or (<= (+ x1 0.6980624043) x10) (or (<= (+ x10 0.9096601457) x1) (or (>= (- y1 0.6483760631) y10) (or (>= (- y10 0.0493664354) y1))))) 
(and (or (<= (+ x1 0.6980624043) x11) (or (<= (+ x11 0.2781373864) x1) (or (>= (- y1 0.6483760631) y11) (or (>= (- y11 0.0343535925) y1))))) 
(and (or (<= (+ x2 0.6120988242) x3) (or (<= (+ x3 0.2809041146) x2) (or (>= (- y2 0.5942602506) y3) (or (>= (- y3 0.5711087883) y2))))) 
(and (or (<= (+ x2 0.6120988242) x4) (or (<= (+ x4 0.3373722324) x2) (or (>= (- y2 0.5942602506) y4) (or (>= (- y4 0.4594187931) y2))))) 
(and (or (<= (+ x2 0.6120988242) x5) (or (<= (+ x5 0.4658033045) x2) (or (>= (- y2 0.5942602506) y5) (or (>= (- y5 0.3690513667) y2))))) 
(and (or (<= (+ x2 0.6120988242) x6) (or (<= (+ x6 0.7693883962) x2) (or (>= (- y2 0.5942602506) y6) (or (>= (- y6 0.2942406758) y2))))) 
(and (or (<= (+ x2 0.6120988242) x7) (or (<= (+ x7 0.850028947) x2) (or (>= (- y2 0.5942602506) y7) (or (>= (- y7 0.2606296293) y2))))) 
(and (or (<= (+ x2 0.6120988242) x8) (or (<= (+ x8 0.1587576041) x2) (or (>= (- y2 0.5942602506) y8) (or (>= (- y8 0.2528630481) y2))))) 
(and (or (<= (+ x2 0.6120988242) x9) (or (<= (+ x9 0.4296516965) x2) (or (>= (- y2 0.5942602506) y9) (or (>= (- y9 0.1620934291) y2))))) 
(and (or (<= (+ x2 0.6120988242) x10) (or (<= (+ x10 0.9096601457) x2) (or (>= (- y2 0.5942602506) y10) (or (>= (- y10 0.0493664354) y2))))) 
(and (or (<= (+ x2 0.6120988242) x11) (or (<= (+ x11 0.2781373864) x2) (or (>= (- y2 0.5942602506) y11) (or (>= (- y11 0.0343535925) y2))))) 
(and (or (<= (+ x3 0.2809041146) x4) (or (<= (+ x4 0.3373722324) x3) (or (>= (- y3 0.5711087883) y4) (or (>= (- y4 0.4594187931) y3))))) 
(and (or (<= (+ x3 0.2809041146) x5) (or (<= (+ x5 0.4658033045) x3) (or (>= (- y3 0.5711087883) y5) (or (>= (- y5 0.3690513667) y3))))) 
(and (or (<= (+ x3 0.2809041146) x6) (or (<= (+ x6 0.7693883962) x3) (or (>= (- y3 0.5711087883) y6) (or (>= (- y6 0.2942406758) y3))))) 
(and (or (<= (+ x3 0.2809041146) x7) (or (<= (+ x7 0.850028947) x3) (or (>= (- y3 0.5711087883) y7) (or (>= (- y7 0.2606296293) y3))))) 
(and (or (<= (+ x3 0.2809041146) x8) (or (<= (+ x8 0.1587576041) x3) (or (>= (- y3 0.5711087883) y8) (or (>= (- y8 0.2528630481) y3))))) 
(and (or (<= (+ x3 0.2809041146) x9) (or (<= (+ x9 0.4296516965) x3) (or (>= (- y3 0.5711087883) y9) (or (>= (- y9 0.1620934291) y3))))) 
(and (or (<= (+ x3 0.2809041146) x10) (or (<= (+ x10 0.9096601457) x3) (or (>= (- y3 0.5711087883) y10) (or (>= (- y10 0.0493664354) y3))))) 
(and (or (<= (+ x3 0.2809041146) x11) (or (<= (+ x11 0.2781373864) x3) (or (>= (- y3 0.5711087883) y11) (or (>= (- y11 0.0343535925) y3))))) 
(and (or (<= (+ x4 0.3373722324) x5) (or (<= (+ x5 0.4658033045) x4) (or (>= (- y4 0.4594187931) y5) (or (>= (- y5 0.3690513667) y4))))) 
(and (or (<= (+ x4 0.3373722324) x6) (or (<= (+ x6 0.7693883962) x4) (or (>= (- y4 0.4594187931) y6) (or (>= (- y6 0.2942406758) y4))))) 
(and (or (<= (+ x4 0.3373722324) x7) (or (<= (+ x7 0.850028947) x4) (or (>= (- y4 0.4594187931) y7) (or (>= (- y7 0.2606296293) y4))))) 
(and (or (<= (+ x4 0.3373722324) x8) (or (<= (+ x8 0.1587576041) x4) (or (>= (- y4 0.4594187931) y8) (or (>= (- y8 0.2528630481) y4))))) 
(and (or (<= (+ x4 0.3373722324) x9) (or (<= (+ x9 0.4296516965) x4) (or (>= (- y4 0.4594187931) y9) (or (>= (- y9 0.1620934291) y4))))) 
(and (or (<= (+ x4 0.3373722324) x10) (or (<= (+ x10 0.9096601457) x4) (or (>= (- y4 0.4594187931) y10) (or (>= (- y10 0.0493664354) y4))))) 
(and (or (<= (+ x4 0.3373722324) x11) (or (<= (+ x11 0.2781373864) x4) (or (>= (- y4 0.4594187931) y11) (or (>= (- y11 0.0343535925) y4))))) 
(and (or (<= (+ x5 0.4658033045) x6) (or (<= (+ x6 0.7693883962) x5) (or (>= (- y5 0.3690513667) y6) (or (>= (- y6 0.2942406758) y5))))) 
(and (or (<= (+ x5 0.4658033045) x7) (or (<= (+ x7 0.850028947) x5) (or (>= (- y5 0.3690513667) y7) (or (>= (- y7 0.2606296293) y5))))) 
(and (or (<= (+ x5 0.4658033045) x8) (or (<= (+ x8 0.1587576041) x5) (or (>= (- y5 0.3690513667) y8) (or (>= (- y8 0.2528630481) y5))))) 
(and (or (<= (+ x5 0.4658033045) x9) (or (<= (+ x9 0.4296516965) x5) (or (>= (- y5 0.3690513667) y9) (or (>= (- y9 0.1620934291) y5))))) 
(and (or (<= (+ x5 0.4658033045) x10) (or (<= (+ x10 0.9096601457) x5) (or (>= (- y5 0.3690513667) y10) (or (>= (- y10 0.0493664354) y5))))) 
(and (or (<= (+ x5 0.4658033045) x11) (or (<= (+ x11 0.2781373864) x5) (or (>= (- y5 0.3690513667) y11) (or (>= (- y11 0.0343535925) y5))))) 
(and (or (<= (+ x6 0.7693883962) x7) (or (<= (+ x7 0.850028947) x6) (or (>= (- y6 0.2942406758) y7) (or (>= (- y7 0.2606296293) y6))))) 
(and (or (<= (+ x6 0.7693883962) x8) (or (<= (+ x8 0.1587576041) x6) (or (>= (- y6 0.2942406758) y8) (or (>= (- y8 0.2528630481) y6))))) 
(and (or (<= (+ x6 0.7693883962) x9) (or (<= (+ x9 0.4296516965) x6) (or (>= (- y6 0.2942406758) y9) (or (>= (- y9 0.1620934291) y6))))) 
(and (or (<= (+ x6 0.7693883962) x10) (or (<= (+ x10 0.9096601457) x6) (or (>= (- y6 0.2942406758) y10) (or (>= (- y10 0.0493664354) y6))))) 
(and (or (<= (+ x6 0.7693883962) x11) (or (<= (+ x11 0.2781373864) x6) (or (>= (- y6 0.2942406758) y11) (or (>= (- y11 0.0343535925) y6))))) 
(and (or (<= (+ x7 0.850028947) x8) (or (<= (+ x8 0.1587576041) x7) (or (>= (- y7 0.2606296293) y8) (or (>= (- y8 0.2528630481) y7))))) 
(and (or (<= (+ x7 0.850028947) x9) (or (<= (+ x9 0.4296516965) x7) (or (>= (- y7 0.2606296293) y9) (or (>= (- y9 0.1620934291) y7))))) 
(and (or (<= (+ x7 0.850028947) x10) (or (<= (+ x10 0.9096601457) x7) (or (>= (- y7 0.2606296293) y10) (or (>= (- y10 0.0493664354) y7))))) 
(and (or (<= (+ x7 0.850028947) x11) (or (<= (+ x11 0.2781373864) x7) (or (>= (- y7 0.2606296293) y11) (or (>= (- y11 0.0343535925) y7))))) 
(and (or (<= (+ x8 0.1587576041) x9) (or (<= (+ x9 0.4296516965) x8) (or (>= (- y8 0.2528630481) y9) (or (>= (- y9 0.1620934291) y8))))) 
(and (or (<= (+ x8 0.1587576041) x10) (or (<= (+ x10 0.9096601457) x8) (or (>= (- y8 0.2528630481) y10) (or (>= (- y10 0.0493664354) y8))))) 
(and (or (<= (+ x8 0.1587576041) x11) (or (<= (+ x11 0.2781373864) x8) (or (>= (- y8 0.2528630481) y11) (or (>= (- y11 0.0343535925) y8))))) 
(and (or (<= (+ x9 0.4296516965) x10) (or (<= (+ x10 0.9096601457) x9) (or (>= (- y9 0.1620934291) y10) (or (>= (- y10 0.0493664354) y9))))) 
(and (or (<= (+ x9 0.4296516965) x11) (or (<= (+ x11 0.2781373864) x9) (or (>= (- y9 0.1620934291) y11) (or (>= (- y11 0.0343535925) y9))))) 
(and (or (<= (+ x10 0.9096601457) x11) (or (<= (+ x11 0.2781373864) x10) (or (>= (- y10 0.0493664354) y11) (or (>= (- y11 0.0343535925) y10))))) )))))))))))))))))))))))))))))))))))))))))))))))))))))))))))))))))))))))))))))))))))))))))))))))))))))))))))))))))))))))))))))))))))))))))))))))))))))))))))
(minimize c)
(check-sat)
(get-objectives)
(exit)
